%%MatrixMarket matrix coordinate integer general
% Column intersection graph exported for ColPack alignment
43 43 121
1 2 1
1 3 1
1 4 1
1 5 1
1 15 1
1 16 1
1 17 1
1 18 1
1 19 1
1 30 1
2 3 1
2 4 1
2 5 1
2 15 1
2 16 1
2 17 1
2 18 1
2 19 1
2 30 1
2 31 1
3 4 1
3 5 1
3 15 1
3 16 1
3 17 1
3 18 1
3 19 1
3 30 1
3 31 1
4 5 1
4 15 1
4 16 1
4 17 1
4 18 1
4 19 1
4 30 1
4 31 1
5 6 1
5 11 1
5 12 1
5 13 1
5 15 1
5 16 1
5 17 1
5 18 1
5 19 1
5 20 1
5 25 1
5 26 1
5 27 1
5 30 1
5 34 1
6 11 1
6 12 1
6 13 1
6 19 1
6 20 1
6 25 1
6 26 1
6 27 1
6 34 1
7 8 1
7 21 1
7 22 1
8 21 1
8 22 1
11 12 1
11 13 1
11 19 1
11 20 1
11 25 1
11 26 1
11 27 1
11 34 1
12 13 1
12 19 1
12 20 1
12 25 1
12 26 1
12 27 1
12 34 1
13 19 1
13 20 1
13 25 1
13 26 1
13 27 1
13 34 1
15 16 1
15 17 1
15 18 1
15 19 1
15 30 1
16 17 1
16 18 1
16 19 1
16 30 1
16 31 1
17 18 1
17 19 1
17 30 1
17 31 1
18 19 1
18 30 1
18 31 1
19 20 1
19 25 1
19 26 1
19 27 1
19 30 1
19 34 1
20 25 1
20 26 1
20 27 1
20 34 1
21 22 1
25 26 1
25 27 1
25 34 1
26 27 1
26 34 1
27 34 1
